;symbolic execution tree
(push)
(assert (le x0 java.lang.Object))
(check-sat)
(push)
(assert (le x1 java.lang.Object))
(check-sat)
(push)
(assert (le x0 org.dom4j.Element))
(check-sat)
(push)
(assert (= x1 java.lang.String))
(check-sat)
(push)
(assert (= x1 java.lang.String))
(check-sat)
(push)
(assert (le x0 org.dom4j.tree.AbstractElement))
(check-sat)
(pop)
(push)
(assert (not (le x0 org.dom4j.tree.AbstractElement)))
(check-sat)
(pop)
(pop)
(push)
(assert (not (= x1 java.lang.String)))
(check-sat)
(pop)
(pop)
(push)
(assert (not (= x1 java.lang.String)))
(check-sat)
(push)
(assert (le x0 org.dom4j.Element))
(check-sat)
(push)
(assert (= x1 java.lang.String))
(check-sat)
(pop)
(push)
(assert (not (= x1 java.lang.String)))
(check-sat)
(pop)
(pop)
(push)
(assert (not (le x0 org.dom4j.Element)))
(check-sat)
(pop)
(pop)
(push)
(assert (le x0 org.dom4j.Node))
(check-sat)
(push)
(assert (= x1 java.lang.String))
(check-sat)
(push)
(assert (le x0 org.dom4j.Node))
(check-sat)
(pop)
(push)
(assert (not (le x0 org.dom4j.Node)))
(check-sat)
(pop)
(push)
(assert (le x0 org.dom4j.tree.AbstractAttribute))
(check-sat)
(pop)
(push)
(assert (not (le x0 org.dom4j.tree.AbstractAttribute)))
(check-sat)
(pop)
(pop)
(push)
(assert (not (= x1 java.lang.String)))
(check-sat)
(push)
(assert (= x1 java.lang.String))
(check-sat)
(pop)
(push)
(assert (not (= x1 java.lang.String)))
(check-sat)
(pop)
(push)
(assert (le x0 org.dom4j.Element))
(check-sat)
(push)
(assert (= x1 java.lang.String))
(check-sat)
(pop)
(push)
(assert (not (= x1 java.lang.String)))
(check-sat)
(pop)
(pop)
(push)
(assert (not (le x0 org.dom4j.Element)))
(check-sat)
(push)
(assert (= x1 java.lang.String))
(check-sat)
(pop)
(push)
(assert (not (= x1 java.lang.String)))
(check-sat)
(pop)
(pop)
(push)
(assert (le x0 org.dom4j.tree.AbstractAttribute))
(check-sat)
(pop)
(push)
(assert (not (le x0 org.dom4j.tree.AbstractAttribute)))
(check-sat)
(push)
(assert (le x0 org.dom4j.tree.FlyweightAttribute))
(check-sat)
(pop)
(push)
(assert (not (le x0 org.dom4j.tree.FlyweightAttribute)))
(check-sat)
(pop)
(pop)
(pop)
(pop)
(push)
(assert (not (le x0 org.dom4j.Node)))
(check-sat)
(pop)
(push)
(assert (= x1 java.lang.StringBuffer))
(check-sat)
(pop)
(push)
(assert (not (= x1 java.lang.StringBuffer)))
(check-sat)
(push)
(assert (le x0 org.dom4j.tree.DefaultElement))
(check-sat)
(pop)
(push)
(assert (not (le x0 org.dom4j.tree.DefaultElement)))
(check-sat)
(push)
(assert (le x0 org.dom4j.tree.AbstractElement))
(check-sat)
(push)
(assert (le x0 org.dom4j.tree.AbstractElement))
(check-sat)
(pop)
(push)
(assert (not (le x0 org.dom4j.tree.AbstractElement)))
(check-sat)
(pop)
(push)
(assert (= x1 java.lang.StringBuffer))
(check-sat)
(pop)
(push)
(assert (not (= x1 java.lang.StringBuffer)))
(check-sat)
(pop)
(pop)
(push)
(assert (not (le x0 org.dom4j.tree.AbstractElement)))
(check-sat)
(pop)
(push)
(assert (le x0 org.dom4j.tree.AbstractElement))
(check-sat)
(pop)
(push)
(assert (not (le x0 org.dom4j.tree.AbstractElement)))
(check-sat)
(push)
(assert (le x0 org.dom4j.Element))
(check-sat)
(pop)
(push)
(assert (not (le x0 org.dom4j.Element)))
(check-sat)
(pop)
(pop)
(pop)
(pop)
(push)
(assert (le x0 org.dom4j.tree.AbstractElement))
(check-sat)
(pop)
(push)
(assert (not (le x0 org.dom4j.tree.AbstractElement)))
(check-sat)
(push)
(assert (= x1 java.lang.StringBuffer))
(check-sat)
(pop)
(push)
(assert (not (= x1 java.lang.StringBuffer)))
(check-sat)
(push)
(assert (= x1 java.lang.StringBuffer))
(check-sat)
(pop)
(push)
(assert (not (= x1 java.lang.StringBuffer)))
(check-sat)
(pop)
(pop)
(push)
(assert (le x0 org.dom4j.Element))
(check-sat)
(push)
(assert (= x1 java.lang.StringBuffer))
(check-sat)
(pop)
(push)
(assert (not (= x1 java.lang.StringBuffer)))
(check-sat)
(push)
(assert (= x1 java.lang.StringBuffer))
(check-sat)
(pop)
(push)
(assert (not (= x1 java.lang.StringBuffer)))
(check-sat)
(pop)
(push)
(assert (= x1 java.lang.StringBuffer))
(check-sat)
(pop)
(push)
(assert (not (= x1 java.lang.StringBuffer)))
(check-sat)
(pop)
(push)
(assert (le x0 org.dom4j.Element))
(check-sat)
(pop)
(push)
(assert (not (le x0 org.dom4j.Element)))
(check-sat)
(pop)
(pop)
(pop)
(push)
(assert (not (le x0 org.dom4j.Element)))
(check-sat)
(push)
(assert (= x1 java.lang.String))
(check-sat)
(pop)
(push)
(assert (not (= x1 java.lang.String)))
(check-sat)
(pop)
(push)
(assert (= x1 java.lang.StringBuffer))
(check-sat)
(push)
(assert (le x0 org.dom4j.Element))
(check-sat)
(pop)
(push)
(assert (not (le x0 org.dom4j.Element)))
(check-sat)
(pop)
(pop)
(push)
(assert (not (= x1 java.lang.StringBuffer)))
(check-sat)
(pop)
(push)
(assert (le x0 org.dom4j.Element))
(check-sat)
(pop)
(push)
(assert (not (le x0 org.dom4j.Element)))
(check-sat)
(pop)
(push)
(assert (le x0 org.dom4j.tree.DefaultElement))
(check-sat)
(pop)
(push)
(assert (not (le x0 org.dom4j.tree.DefaultElement)))
(check-sat)
(pop)
(push)
(assert (le x0 org.dom4j.tree.DefaultElement))
(check-sat)
(pop)
(push)
(assert (not (le x0 org.dom4j.tree.DefaultElement)))
(check-sat)
(push)
(assert (= x1 java.lang.StringBuffer))
(check-sat)
(pop)
(push)
(assert (not (= x1 java.lang.StringBuffer)))
(check-sat)
(pop)
(push)
(assert (le x0 org.dom4j.tree.AbstractElement))
(check-sat)
(pop)
(push)
(assert (not (le x0 org.dom4j.tree.AbstractElement)))
(check-sat)
(pop)
(pop)
(push)
(assert (le x0 org.dom4j.Element))
(check-sat)
(pop)
(push)
(assert (not (le x0 org.dom4j.Element)))
(check-sat)
(push)
(assert (= x1 java.lang.StringBuffer))
(check-sat)
(pop)
(push)
(assert (not (= x1 java.lang.StringBuffer)))
(check-sat)
(pop)
(pop)
(pop)
(push)
(assert (le x0 org.dom4j.Element))
(check-sat)
(pop)
(push)
(assert (not (le x0 org.dom4j.Element)))
(check-sat)
(push)
(assert (= x1 java.lang.StringBuffer))
(check-sat)
(pop)
(push)
(assert (not (= x1 java.lang.StringBuffer)))
(check-sat)
(pop)
(pop)
(push)
(assert (le x0 org.dom4j.Element))
(check-sat)
(pop)
(push)
(assert (not (le x0 org.dom4j.Element)))
(check-sat)
(pop)
(push)
(assert (= x1 java.lang.StringBuffer))
(check-sat)
(pop)
(push)
(assert (not (= x1 java.lang.StringBuffer)))
(check-sat)
(pop)
(push)
(assert (le x0 org.dom4j.Element))
(check-sat)
(pop)
(push)
(assert (not (le x0 org.dom4j.Element)))
(check-sat)
(pop)
(push)
(assert (le x0 org.dom4j.Element))
(check-sat)
(pop)
(push)
(assert (not (le x0 org.dom4j.Element)))
(check-sat)
(pop)
(pop)
(push)
(assert (le x0 org.dom4j.tree.DefaultElement))
(check-sat)
(pop)
(push)
(assert (not (le x0 org.dom4j.tree.DefaultElement)))
(check-sat)
(push)
(assert (= x1 java.lang.StringBuffer))
(check-sat)
(push)
(assert (le x0 org.dom4j.tree.AbstractElement))
(check-sat)
(pop)
(push)
(assert (not (le x0 org.dom4j.tree.AbstractElement)))
(check-sat)
(pop)
(pop)
(push)
(assert (not (= x1 java.lang.StringBuffer)))
(check-sat)
(pop)
(push)
(assert (le x1 com.lowagie.text.pdf.PdfObject))
(check-sat)
(push)
(assert (le x1 com.lowagie.text.pdf.PdfWriter_currencysign_PdfTrailer))
(check-sat)
(push)
(assert (le x1 com.lowagie.text.pdf.PdfObject))
(check-sat)
(pop)
(push)
(assert (not (le x1 com.lowagie.text.pdf.PdfObject)))
(check-sat)
(pop)
(pop)
(push)
(assert (le x1 com.lowagie.text.pdf.PdfOutline))
(check-sat)
(pop)
(push)
(assert (le x1 com.lowagie.text.pdf.PdfLiteral))
(check-sat)
(push)
(assert (le x0 org.dom4j.tree.DefaultElement))
(check-sat)
(pop)
(push)
(assert (not (le x0 org.dom4j.tree.DefaultElement)))
(check-sat)
(pop)
(pop)
(push)
(assert (le x1 com.lowagie.text.pdf.PdfDictionary))
(check-sat)
(push)
(assert (not (le x1 com.lowagie.text.pdf.PdfStream)))
(check-sat)
(push)
(assert (not (le x1 com.lowagie.text.pdf.PdfOutline)))
(check-sat)
(push)
(assert (not (le x1 com.lowagie.text.pdf.PdfWriter_currencysign_PdfTrailer)))
(check-sat)
(pop)
(pop)
(pop)
(pop)
(push)
(assert (le x1 com.lowagie.text.pdf.PdfArray))
(check-sat)
(push)
(assert (not (le x1 com.lowagie.text.pdf.PdfDashPattern)))
(check-sat)
(push)
(assert (le x1 com.lowagie.text.pdf.PdfObject))
(check-sat)
(pop)
(push)
(assert (not (le x1 com.lowagie.text.pdf.PdfObject)))
(check-sat)
(pop)
(pop)
(pop)
(push)
(assert (le x1 com.lowagie.text.pdf.PRStream))
(check-sat)
(pop)
(push)
(assert (le x1 com.lowagie.text.pdf.PdfDashPattern))
(check-sat)
(pop)
(push)
(assert (le x1 com.lowagie.text.pdf.PdfObject))
(check-sat)
(push)
(assert (not (le x1 com.lowagie.text.pdf.PdfString)))
(check-sat)
(push)
(assert (not (le x1 com.lowagie.text.pdf.PdfArray)))
(check-sat)
(push)
(assert (not (le x1 com.lowagie.text.pdf.PdfLiteral)))
(check-sat)
(push)
(assert (not (le x1 com.lowagie.text.pdf.PdfDictionary)))
(check-sat)
(pop)
(pop)
(pop)
(pop)
(pop)
(push)
(assert (le x1 com.lowagie.text.pdf.PdfEFStream))
(check-sat)
(pop)
(push)
(assert (le x1 com.lowagie.text.pdf.PdfString))
(check-sat)
(pop)
(push)
(assert (le x1 com.lowagie.text.pdf.PRIndirectReference))
(check-sat)
(pop)
(push)
(assert (not (le x1 com.lowagie.text.pdf.PdfEFStream)))
(check-sat)
(push)
(assert (not (le x1 com.lowagie.text.pdf.PRStream)))
(check-sat)
(push)
(assert (le x1 com.lowagie.text.pdf.PdfStream))
(check-sat)
(pop)
(pop)
(pop)
(pop)
(push)
(assert (not (le x1 com.lowagie.text.pdf.PdfObject)))
(check-sat)
(pop)
(pop)
(pop)
(push)
(assert (not (le x0 org.dom4j.Element)))
(check-sat)
(pop)
